
List of user-set options:

                                    Name   Value                used
                           compl_inf_tol = 1                     yes
                         constr_viol_tol = 1                     yes
                            dual_inf_tol = 1000                  yes
                           linear_solver = ma97                  yes
                              ma86_small = 1e-30                  no
                                  ma86_u = 0.0001                 no
                              ma97_order = best                  yes
                              ma97_small = 1e-30                 yes
                            ma97_switch1 = at_start              yes
                            ma97_switch2 = od_hd_reuse           yes
                                  ma97_u = 1e-06                 yes
                               ma97_umax = 0.5                   yes
                                max_iter = 1000                  yes
                    max_refinement_steps = 20                    yes
                    min_refinement_steps = 5                     yes
                                 mu_init = 1e-06                 yes
           mu_superlinear_decrease_power = 1.25                  yes
                   nlp_scaling_min_value = 1e-08                 yes
                        option_file_name = Preset_Case_218_pf.opt  yes
                             output_file = ./tmp/Preset_Case_218_pf.output  yes
                      print_user_options = yes                   yes
        required_infeasibility_reduction = 1                      no
                                     tol = 1e-08                 yes
                   warm_start_bound_frac = 1e-20                 yes
                   warm_start_bound_push = 1e-20                 yes
                   warm_start_init_point = yes                   yes
              warm_start_mult_bound_push = 1e-20                 yes
                warm_start_mult_init_max = 1e+40                 yes
             warm_start_slack_bound_frac = 1e-20                 yes
             warm_start_slack_bound_push = 1e-20                 yes

******************************************************************************
This program contains Ipopt, a library for large-scale nonlinear optimization.
 Ipopt is released as open source code under the Eclipse Public License (EPL).
         For more information visit http://projects.coin-or.org/Ipopt
******************************************************************************

This is Ipopt version 3.12.10, running with linear solver ma97.

Number of nonzeros in equality constraint Jacobian...:   123443
Number of nonzeros in inequality constraint Jacobian.:      213
Number of nonzeros in Lagrangian Hessian.............:    49069

Total number of variables............................:    31591
                     variables with only lower bounds:    12912
                variables with lower and upper bounds:    15130
                     variables with only upper bounds:        0
Total number of equality constraints.................:    31483
Total number of inequality constraints...............:       25
        inequality constraints with only lower bounds:        4
   inequality constraints with lower and upper bounds:        0
        inequality constraints with only upper bounds:       21

iter    objective    inf_pr   inf_du lg(mu)  ||d||  lg(rg) alpha_du alpha_pr  ls
   0 -5.3248614e+00 4.93e-03 1.02e+00  -6.0 0.00e+00    -  0.00e+00 0.00e+00   0
   1 -5.3310603e+00 8.07e+00 3.25e+01  -6.0 4.92e+05    -  6.35e-05 8.89e-04h  1
   2 -5.3310145e+00 8.07e+00 4.44e+01  -6.0 1.47e+03    -  6.43e-03 5.29e-05h  1
   3 -5.3269489e+00 8.04e+00 4.65e+01  -6.0 1.46e+03    -  2.14e-02 4.08e-03h  3
   4 -5.3249934e+00 8.03e+00 6.30e+01  -6.0 6.58e+02    -  4.73e-03 1.66e-03h  3
   5 -5.3245135e+00 8.02e+00 3.34e+02  -6.0 1.32e+03    -  2.53e-01 4.76e-04h  9
   6 -5.3241993e+00 8.02e+00 3.39e+02  -6.0 1.31e+03    -  6.28e-03 3.12e-04h 12
   7 -5.3241200e+00 8.02e+00 3.50e+02  -6.0 1.31e+03    -  1.38e-02 7.89e-05h 14
   8 -5.1198415e+00 3.87e+00 6.27e+04  -6.0 1.31e+03    -  1.96e-02 7.27e-01H  1
   9 -5.2099210e+00 4.21e+00 5.52e+04  -6.0 2.39e+03    -  3.98e-01 1.19e-01h  1
iter    objective    inf_pr   inf_du lg(mu)  ||d||  lg(rg) alpha_du alpha_pr  ls
  10 -5.8638104e+00 4.56e+01 5.70e+04  -6.0 1.93e+03    -  5.88e-01 1.00e+00h  1
  11 -5.8585273e+00 4.38e+01 5.47e+04  -6.0 8.81e+01  -4.0 4.84e-02 3.89e-02h  1
  12 -5.7276464e+00 2.70e-01 1.30e+04  -6.0 4.75e+00  -4.5 3.93e-01 1.00e+00h  1
  13 -5.7255582e+00 2.96e-02 2.52e+03  -6.0 1.53e+01  -5.0 1.00e+00 1.00e+00h  1
  14 -5.7352785e+00 8.36e-02 2.43e+03  -6.0 2.85e+01  -5.4 5.71e-01 1.00e+00h  1
  15 -5.7462037e+00 1.26e-01 3.91e+03  -6.0 5.05e+01  -5.9 1.00e+00 1.00e+00h  1
  16 -5.7570944e+00 7.00e-01 1.38e+03  -6.0 8.10e+01  -6.4 8.88e-01 9.98e-01h  1
  17 -5.7636363e+00 4.94e-01 8.52e+02  -6.0 1.33e+02  -6.9 1.00e+00 4.55e-01h  1
  18 -5.7625337e+00 1.40e-01 5.76e+03  -6.0 1.08e+02  -7.3 2.18e-01 1.00e+00H  1
  19 -5.7598865e+00 1.49e-03 7.26e+01  -6.0 6.87e+00  -5.1 1.00e+00 1.00e+00h  1
iter    objective    inf_pr   inf_du lg(mu)  ||d||  lg(rg) alpha_du alpha_pr  ls
  20 -5.7614685e+00 5.45e-03 6.48e+00  -6.0 1.31e+01  -5.6 1.00e+00 1.00e+00h  1
  21 -5.7659548e+00 4.18e-02 1.26e+01  -6.0 3.61e+01  -6.1 1.00e+00 1.00e+00h  1
  22 -5.7775793e+00 2.70e-01 4.50e+01  -6.0 9.19e+01  -6.5 1.00e+00 1.00e+00h  1
  23 -5.7777629e+00 2.68e-01 2.30e+03  -6.0 1.70e+02  -7.0 1.00e+00 6.74e-03h  1
  24 -5.7901418e+00 2.21e-01 2.89e+01  -6.0 8.36e+01  -6.6 1.00e+00 1.00e+00h  1
  25 -5.7910881e+00 2.09e-01 3.79e+04  -6.0 1.40e+02  -7.1 9.22e-01 6.59e-02h  1
  26 -5.7994540e+00 2.43e-01 4.84e+01  -6.0 7.73e+01  -6.6 1.00e+00 1.00e+00h  1
  27 -5.8035307e+00 2.34e-01 3.85e+04  -6.0 1.47e+02  -7.1 1.06e-01 2.82e-01h  1
  28 -5.8067556e+00 1.28e-01 1.21e+02  -6.0 6.42e+01  -6.7 1.00e+00 1.00e+00f  1
  29 -5.8163826e+00 3.20e-01 1.84e+03  -6.0 2.45e+02  -7.2 7.99e-01 4.00e-01h  1
iter    objective    inf_pr   inf_du lg(mu)  ||d||  lg(rg) alpha_du alpha_pr  ls
  30 -5.8169561e+00 2.21e-01 3.89e+03  -6.0 7.45e+01  -6.7 4.94e-01 1.00e+00h  1
  31 -5.8323419e+00 1.00e+00 5.87e+01  -6.0 2.66e+02  -7.2 1.00e+00 8.77e-01h  1
  32 -5.8687245e+00 9.71e+00 1.41e+03  -6.0 6.78e+03    -  1.56e-02 3.40e-01h  1
  33 -5.8683509e+00 8.31e+00 1.16e+03  -6.0 1.81e+02  -6.8 2.18e-01 1.44e-01h  1
  34 -5.8709897e+00 3.17e+00 1.81e+03  -6.0 3.05e+02  -7.3 6.44e-02 6.62e-01h  1
  35 -5.8585221e+00 6.82e-01 4.48e+04  -6.0 1.50e+02  -5.9 1.48e-01 1.00e+00h  1
  36 -5.8605201e+00 1.61e-02 5.04e+03  -6.0 2.37e+01  -5.5 3.94e-01 1.00e+00h  1
  37 -5.8642630e+00 3.82e-02 2.66e+03  -6.0 4.93e+01  -6.0 3.62e-01 1.00e+00h  1
  38 -5.8649165e+00 2.99e-02 1.37e+02  -6.0 2.34e+01  -5.6 1.00e+00 2.28e-01h  1
  39 -5.8658225e+00 1.33e-02 4.05e+01  -6.0 2.11e+01  -6.0 2.23e-01 5.55e-01h  1
iter    objective    inf_pr   inf_du lg(mu)  ||d||  lg(rg) alpha_du alpha_pr  ls
  40 -5.8660618e+00 8.31e-03 5.76e+01  -6.0 7.99e+00  -5.6 1.00e+00 3.76e-01f  1
  41 -5.8676673e+00 2.55e-02 2.73e+01  -6.0 3.40e+01  -6.1 2.51e-01 1.00e+00f  1
  42 -5.8690432e+00 3.67e-03 1.71e+00  -6.0 1.56e+01  -5.7 1.00e+00 1.00e+00h  1
  43 -5.8750402e+00 1.93e-01 7.62e+01  -6.0 1.03e+02  -6.1 4.92e-01 1.00e+00h  1
  44 -5.8779184e+00 1.91e-01 7.53e+01  -6.0 5.53e+02  -6.6 4.04e-01 5.02e-02h  1
  45 -5.8805740e+00 1.80e-01 7.10e+01  -6.0 1.08e+03    -  1.53e-02 5.80e-02h  1
  46 -5.8915124e+00 1.05e-01 3.85e+01  -6.0 1.20e+02  -6.2 1.00e+00 7.42e-01f  1
  47 -5.8996023e+00 1.40e+00 3.37e+01  -6.0 1.38e+03    -  1.48e-01 1.55e-01h  1
  48 -5.9015846e+00 1.22e+00 1.92e+03  -6.0 8.52e+02    -  3.77e-01 1.31e-01h  1
  49 -6.0108892e+00 3.10e+01 1.71e+03  -6.0 1.05e+04    -  4.19e-02 2.43e-01h  1
iter    objective    inf_pr   inf_du lg(mu)  ||d||  lg(rg) alpha_du alpha_pr  ls
  50 -6.0114778e+00 3.08e+01 1.70e+03  -6.0 8.63e+03    -  8.95e-03 9.50e-03h  1
  51 -6.0080465e+00 2.85e+01 2.42e+03  -6.0 1.17e+03    -  2.03e-01 7.39e-02h  1
  52 -5.9981764e+00 2.14e+01 1.40e+03  -6.0 1.16e+03    -  2.29e-01 2.54e-01h  1
  53 -5.9925977e+00 1.48e+01 1.44e+04  -6.0 8.96e+02    -  8.50e-01 3.08e-01h  1
  54 -5.9894016e+00 6.76e+00 1.73e+04  -6.0 6.90e+02    -  1.00e+00 5.46e-01h  1
  55 -5.9934444e+00 4.44e+00 4.43e+04  -6.0 5.50e+02    -  9.27e-01 3.45e-01h  1
  56 -6.0048087e+00 2.24e+00 5.27e+04  -6.0 5.88e+02    -  1.00e+00 5.23e-01h  1
  57 -6.0137345e+00 1.84e+00 3.99e+05  -6.0 9.41e+02    -  7.27e-02 2.20e-01h  1
  58 -6.0137545e+00 1.84e+00 3.99e+05  -6.0 4.41e+04    -  2.40e-03 2.07e-04h  1
  59 -6.0152433e+00 2.07e+00 4.19e+05  -6.0 7.86e+03    -  5.24e-02 2.91e-02f  1
iter    objective    inf_pr   inf_du lg(mu)  ||d||  lg(rg) alpha_du alpha_pr  ls
  60 -6.0187122e+00 1.94e+00 6.93e+05  -6.0 8.42e+02    -  3.46e-01 6.40e-02h  1
  61 -6.0684230e+00 5.19e+00 1.72e+05  -6.0 8.29e+02    -  9.74e-02 9.27e-01h  1
  62 -6.0629541e+00 5.16e+00 1.61e+05  -6.0 1.53e+03    -  4.15e-02 1.19e-01h  1
  63 -6.0659215e+00 3.84e+00 1.88e+05  -6.0 3.64e+02    -  7.82e-02 2.98e-01h  1
  64r-6.0659215e+00 3.84e+00 1.00e+03   0.4 0.00e+00    -  0.00e+00 1.95e-07R  2
  65r-6.0693339e+00 3.83e+00 1.00e+03   0.4 2.00e+04    -  4.99e-06 9.88e-07f  1
  66 -6.0687166e+00 3.75e+00 2.22e+05  -6.0 2.22e+01    -  1.59e-01 2.16e-02h  1
  67 -6.0617130e+00 2.96e+00 2.43e+06  -6.0 2.52e+01    -  2.16e-02 2.11e-01h  1
  68 -6.0578907e+00 2.47e+00 2.03e+06  -6.0 2.70e+01    -  1.54e-01 1.65e-01h  1
  69 -6.0578818e+00 2.33e+00 1.91e+06  -6.0 2.98e+01    -  2.18e-01 5.69e-02h  1
iter    objective    inf_pr   inf_du lg(mu)  ||d||  lg(rg) alpha_du alpha_pr  ls
  70 -6.0537232e+00 1.81e+00 1.48e+06  -6.0 3.39e+01    -  4.68e-01 2.25e-01h  1
  71 -6.0513522e+00 1.47e+00 1.21e+06  -6.0 5.75e+01    -  6.86e-01 1.84e-01h  1
  72 -6.0436464e+00 5.00e-01 4.11e+05  -6.0 4.79e+00  -4.0 7.87e-01 6.61e-01h  1
  73 -6.0414648e+00 1.54e-01 1.27e+05  -6.0 3.17e+00  -4.4 9.39e-01 6.92e-01h  1
  74 -6.0410288e+00 3.28e-04 2.38e+00  -6.0 4.16e+00  -4.9 9.90e-01 1.00e+00h  1
  75 -6.0412972e+00 5.82e-04 1.28e+00  -6.0 1.18e+01  -5.4 1.00e+00 3.97e-01h  1
  76 -6.0432733e+00 1.58e-02 6.75e-01  -6.0 2.99e+01  -5.9 1.00e+00 1.00e+00f  1
  77 -6.0507436e+00 1.48e+00 7.48e+00  -6.0 7.42e+02    -  1.26e-01 4.31e-01h  2
  78 -6.0511844e+00 1.51e-01 4.88e+02  -6.0 2.90e+02    -  1.59e-01 9.83e-01H  1
  79 -6.0513401e+00 3.50e-03 1.41e-01  -6.0 9.14e+00  -6.4 1.00e+00 1.00e+00h  1
iter    objective    inf_pr   inf_du lg(mu)  ||d||  lg(rg) alpha_du alpha_pr  ls
  80 -6.0516791e+00 1.91e-02 2.77e-01  -6.0 2.78e+01    -  1.00e+00 1.00e+00h  1
  81 -6.0515355e+00 2.60e-05 3.28e-03  -6.0 8.12e-01    -  1.00e+00 1.00e+00h  1
  82 -6.0515196e+00 2.36e-05 4.15e-04  -6.0 7.56e-01    -  1.00e+00 1.00e+00h  1
  83 -6.0515193e+00 1.95e-09 5.93e-08  -6.0 6.89e-03    -  1.00e+00 1.00e+00h  1
  84 -6.0515897e+00 1.81e-03 4.99e+01  -7.5 3.35e+01    -  9.54e-01 7.81e-01h  1
  85 -6.0515937e+00 2.98e-04 7.22e+00  -7.5 7.57e+00    -  1.00e+00 8.85e-01h  1
  86 -6.0515934e+00 2.00e-06 7.70e-03  -7.5 8.66e-01    -  1.00e+00 1.00e+00h  1
  87 -6.0515934e+00 2.84e-10 9.76e-10  -7.5 4.37e-04    -  1.00e+00 1.00e+00h  1
  88 -6.0515950e+00 1.95e-06 7.14e-01  -9.0 1.08e+00    -  9.24e-01 8.47e-01h  1
  89 -6.0515952e+00 6.34e-08 3.02e-04  -9.0 1.65e-01    -  1.00e+00 1.00e+00f  1
iter    objective    inf_pr   inf_du lg(mu)  ||d||  lg(rg) alpha_du alpha_pr  ls
  90 -6.0515952e+00 1.92e-10 2.66e-09  -9.0 8.10e-05    -  1.00e+00 1.00e+00h  1

Number of Iterations....: 90

                                   (scaled)                 (unscaled)
Objective...............:  -4.7278087840341261e+00   -6.0515952435636811e+00
Dual infeasibility......:   2.6559143005424831e-09    3.3995703046943784e-09
Constraint violation....:   1.9199346051792382e-10    1.9199346051792382e-10
Complementarity.........:   1.1607369202148653e-09    1.4857432578750275e-09
Overall NLP error.......:   2.6559143005424831e-09    3.3995703046943784e-09


Number of objective function evaluations             = 145
Number of objective gradient evaluations             = 91
Number of equality constraint evaluations            = 145
Number of inequality constraint evaluations          = 145
Number of equality constraint Jacobian evaluations   = 92
Number of inequality constraint Jacobian evaluations = 92
Number of Lagrangian Hessian evaluations             = 90
Total CPU secs in IPOPT (w/o function evaluations)   =    249.998
Total CPU secs in NLP function evaluations           =      3.943

EXIT: Optimal Solution Found.
